157
100
17
3
29
4
95
11
19
89
92
96
67
40
88
77
25
71
60
2
11
8
52
29
25
72
41
75
77
4
43
67
25
64
40
33
12
39
8
56
25
28
30
25
42
13
60
32
66
10
51
22
47
10
28
21
50
60
72
50
2
25
15
33
28
18
13
15
28
24
1
17
23
53
15
16
67
50
87
30
28
89
4
40
34
20
70
52
5
1
75
46
27
23
33
7
4
64
32
50
80
85
78
82
23
56
98
5
16
24
45
11
78
22
2
16
62
31
57
50
72
55
16
26
38
2
78
17
59
15
13
11
9
38
21
12
22
76
49
40
59
53
60
8
13
9
90
4
80
27
40
6
5
7
20
48
96
17
96
